StudentsNr = 10;
InstructorsNr = 64;
DaysNr = 2;
SlotsPerDay = 40;
AvailabilitySlotsLenght = 10;
RoomNr = 1;
ProgrammNr = 1;
DegreeNr = 2;
RolesNr = 2;
CoursesNr = 10;
InstructorsProgramm = [{1}, {1}, {1}, {1}, {1}, {1}, {1}, {1}, {1}, {1}, {1}, {1}, {1}, {1}, {1}, {1}, {1}, {1}, {1}, {1}, {1}, {1}, {1}, {1}, {1}, {1}, {1}, {1}, {1}, {1}, {1}, {1}, {1}, {1}, {1}, {1}, {1}, {1}, {1}, {1}, {1}, {1}, {1}, {1}, {1}, {1}, {1}, {1}, {1}, {1}, {1}, {1}, {1}, {1}, {1}, {1}, {1}, {1}, {1}, {1}, {1}, {1}, {1}, {1}];
InstructorRolesPerProgramm = [|{4, 5, 6, 9, 11, 12, 13, 15, 17, 21, 22, 24, 26, 27, 28, 29, 30, 32, 34, 35, 36, 38, 39, 40, 41, 42, 43, 44, 46, 47, 56, 60, 61, 63}, {1, 2, 10, 17, 22, 24, 26, 28, 29, 30, 33, 34, 35, 37, 41, 43, 45, 46, 47, 48, 53, 59, 63}|];
InstructorsAvailability = [|0, 1, 1, 1, 1, 1, 1, 1, |1, 1, 1, 1, 1, 1, 1, 1, |1, 1, 1, 1, 1, 1, 1, 1, |1, 1, 1, 1, 1, 1, 0, 1, |0, 1, 1, 1, 1, 1, 1, 1, |1, 1, 1, 1, 1, 1, 1, 1, |1, 0, 1, 1, 0, 0, 1, 1, |1, 1, 0, 0, 0, 1, 1, 1, |1, 1, 1, 1, 0, 1, 1, 1, |0, 0, 1, 1, 1, 1, 1, 0, |0, 1, 1, 1, 1, 1, 1, 1, |1, 1, 1, 1, 0, 1, 1, 1, |1, 1, 0, 1, 1, 1, 1, 1, |1, 1, 1, 0, 0, 0, 1, 0, |0, 0, 0, 0, 1, 1, 1, 0, |0, 1, 1, 1, 1, 1, 1, 1, |1, 1, 1, 1, 0, 1, 1, 1, |0, 1, 1, 1, 1, 1, 1, 1, |1, 1, 1, 1, 1, 1, 1, 1, |1, 1, 1, 1, 0, 1, 0, 1, |1, 1, 1, 1, 1, 1, 1, 1, |1, 1, 1, 1, 1, 1, 0, 0, |0, 0, 0, 1, 1, 1, 0, 0, |1, 1, 1, 1, 1, 1, 1, 1, |1, 0, 0, 1, 1, 1, 1, 1, |0, 1, 1, 1, 1, 0, 1, 1, |1, 1, 0, 1, 1, 1, 1, 1, |1, 1, 0, 0, 0, 0, 1, 1, |1, 1, 1, 1, 1, 1, 1, 1, |1, 1, 1, 0, 1, 1, 1, 1, |1, 1, 1, 1, 1, 1, 1, 1, |0, 1, 1, 1, 1, 1, 1, 1, |0, 1, 1, 1, 1, 1, 1, 1, |1, 1, 1, 1, 1, 1, 0, 1, |0, 0, 0, 0, 1, 0, 0, 1, |1, 1, 0, 0, 0, 0, 0, 0, |0, 1, 0, 1, 1, 0, 1, 1, |0, 0, 0, 1, 1, 1, 1, 1, |1, 1, 1, 1, 1, 1, 1, 1, |1, 1, 0, 0, 0, 1, 1, 1, |1, 1, 1, 1, 1, 1, 0, 0, |0, 0, 0, 0, 1, 1, 1, 1, |0, 1, 1, 1, 1, 1, 1, 1, |0, 1, 0, 0, 1, 1, 1, 1, |1, 1, 1, 1, 1, 1, 1, 1, |1, 0, 0, 0, 1, 1, 1, 1, |1, 0, 1, 1, 1, 1, 1, 0, |0, 1, 0, 1, 1, 1, 1, 1, |1, 0, 1, 1, 1, 1, 1, 1, |0, 1, 1, 1, 1, 0, 1, 1, |1, 1, 1, 1, 1, 1, 1, 1, |0, 1, 1, 1, 1, 0, 1, 1, |1, 1, 1, 0, 1, 1, 1, 1, |1, 1, 1, 1, 0, 1, 1, 0, |1, 1, 0, 1, 1, 0, 1, 1, |1, 1, 1, 1, 1, 1, 0, 1, |0, 1, 1, 1, 1, 1, 1, 1, |1, 1, 1, 1, 1, 1, 1, 1, |0, 1, 1, 1, 1, 1, 1, 1, |0, 1, 1, 1, 1, 1, 1, 1, |1, 1, 1, 1, 1, 1, 1, 0, |0, 0, 1, 1, 1, 1, 1, 1, |0, 0, 0, 0, 1, 1, 1, 1, |0, 1, 0, 1, 1, 0, 1, 1|];
StudentsProgramm = [1, 1, 1, 1, 1, 1, 1, 1, 1, 1];
StudentsDegree = [1, 2, 1, 2, 1, 2, 1, 2, 1, 2];
StudentsSupervisorId = [34, 9, 59, 50, 36, 54, 9, 8, 20, 60];
StudentsCourseIds = [{2, 3, 5, 6, 7}, {}, {1, 2, 3, 6, 8}, {}, {2, 3, 4, 7, 8}, {}, {1, 2, 4, 5, 10}, {}, {1, 2, 4, 6, 10}, {}];
StudentsAvailability = [|0, 0, 0, 1, 1, 1, 1, 1, |1, 1, 1, 1, 1, 1, 1, 1, |0, 1, 1, 1, 1, 1, 1, 0, |1, 1, 1, 1, 1, 1, 1, 1, |0, 1, 1, 1, 1, 1, 0, 0, |0, 0, 0, 0, 1, 1, 1, 1, |1, 1, 1, 1, 1, 1, 1, 1, |1, 1, 1, 1, 1, 1, 1, 1, |0, 1, 0, 0, 0, 1, 0, 0, |1, 1, 0, 1, 1, 1, 1, 1|];
TheoryticalMinCard = [0, 0, 0, 1, 0, 1, 0, 1, 0, 0];
CoursesInstructorIds = [{2, 3, 4, 6, 7, 10, 13, 16, 19, 20, 22, 25, 26, 27, 28, 30, 32, 33, 34, 35, 36, 37, 38, 40, 42, 43, 44, 45, 46, 48, 49, 50, 51, 52, 53, 54, 56, 57, 58, 59, 60, 61, 63, 64}, {26, 31, 44}, {3, 4, 5, 12, 13, 15, 16, 19, 20, 21, 23, 25, 26, 27, 28, 34, 35, 39, 41, 42, 43, 44, 46, 47, 51, 52, 53, 55, 59, 60, 62, 63, 64}, {11}, {4, 5, 6, 7, 9, 10, 11, 13, 14, 15, 16, 17, 18, 19, 21, 22, 23, 24, 27, 28, 29, 30, 33, 34, 39, 41, 43, 44, 45, 49, 51, 53, 54, 55, 57, 58, 59}, {4, 6, 17, 22, 32, 34, 35, 39, 44, 49, 50, 53, 57}, {7, 22, 23, 26, 28, 32, 44, 45, 52, 54, 58, 60, 62, 64}, {3, 4, 13, 14, 19, 20, 21, 26, 27, 28, 29, 33, 36, 39, 41, 42, 45, 46, 47, 48, 51, 52, 53, 55, 56, 57, 63}, {2, 3, 4, 5, 6, 8, 9, 11, 13, 16, 17, 18, 20, 21, 23, 25, 26, 27, 28, 29, 30, 33, 34, 36, 37, 39, 41, 42, 46, 49, 50, 51, 53, 54, 55, 57, 58, 59, 60, 62, 64}, {16, 27, 29, 42, 43}];
RolesDemands = [10, 20];
RolesContinuity = [2];
ExamLen = [1, 1, 1, 1, 1, 1, 1, 1, 1, 1];
LunchTsMinLen = 0;
LunchStarts = [14..23, 58..67];
SupervisorAvailable = 5;
OptimalLunchLenght = [3, 1];
OptimalStartTs = [0, 0];
OptimalFinishTs = [1, 40];
MinimizeRooms = 200;
RolesSoftContinuity = [|1, 2|2, 2|];
SameDegreeInRoom = 10;
Mergeability = 2;
